
Gurobi 11.0.0 (linux64) logging started Tue Sep 17 03:51:17 2024

Set parameter LogFile to value "gurobi.log"
Set parameter InfUnbdInfo to value 1
Gurobi Optimizer version 11.0.0 build v11.0.0rc2 (linux64 - "Ubuntu 22.04.4 LTS")

CPU model: AMD EPYC 7V13 64-Core Processor, instruction set [SSE2|AVX|AVX2]
Thread count: 128 physical cores, 128 logical processors, using up to 32 threads

Optimize a model with 29 rows, 598 columns and 95 nonzeros
Model fingerprint: 0x8056eae2
Model has 625 quadratic constraints
Model has 1 general constraint
Variable types: 202 continuous, 396 integer (0 binary)
Coefficient statistics:
  Matrix range     [1e+00, 6e+04]
  QMatrix range    [1e+00, 6e+04]
  QLMatrix range   [1e+00, 6e+04]
  Objective range  [1e+00, 1e+00]
  Bounds range     [1e+00, 1e+11]
  RHS range        [1e+00, 1e+00]
  QRHS range       [4e+01, 2e+06]
Warning: Model contains large bounds
         Consider reformulating model or setting NumericFocus parameter
         to avoid numerical issues.
Using branch priorities (all 0).
Presolve added 19 rows and 0 columns
Presolve removed 0 rows and 63 columns
Presolve time: 0.01s
Presolved: 2179 rows, 814 columns, 5607 nonzeros
Presolved model has 16 SOS constraint(s)
Presolved model has 408 bilinear constraint(s)
Warning: Model contains variables with very large bounds participating
         in product terms.
         Presolve was not able to compute smaller bounds for these variables.
         Consider bounding these variables or reformulating the model.


Solving non-convex MIQCP

Variable types: 299 continuous, 515 integer (199 binary)

Root relaxation: objective 3.980000e+02, 156 iterations, 0.00 seconds (0.00 work units)

    Nodes    |    Current Node    |     Objective Bounds      |     Work
 Expl Unexpl |  Obj  Depth IntInf | Incumbent    BestBd   Gap | It/Node Time

     0     0  398.00000    0   89          -  398.00000      -     -    0s
     0     0  398.00000    0   87          -  398.00000      -     -    0s
H    0     0                    402330.00000  398.00000   100%     -    0s
     0     0 4365.00000    0  129 402330.000 4365.00000  98.9%     -    0s
     0     0 4365.00000    0  128 402330.000 4365.00000  98.9%     -    0s
H    0     0                    392658.00000 17698.3333  95.5%     -    0s
     0     0 17698.3333    0  127 392658.000 17698.3333  95.5%     -    0s
     0     0 24200.9580    0   89 392658.000 24200.9580  93.8%     -    0s
H    0     0                    95536.000000 24201.2186  74.7%     -    0s
     0     0 24201.2846    0   91 95536.0000 24201.2846  74.7%     -    0s
     0     0 24202.3828    0   91 95536.0000 24202.3828  74.7%     -    0s
H    0     0                    92988.000000 24202.5534  74.0%     -    0s
     0     0 24202.5534    0   95 92988.0000 24202.5534  74.0%     -    0s
     0     0 24202.9806    0   87 92988.0000 24202.9806  74.0%     -    0s
H    0     0                    27562.000000 24203.4672  12.2%     -    0s
     0     0 24203.4672    0   85 27562.0000 24203.4672  12.2%     -    0s
     0     0 24203.4672    0   90 27562.0000 24203.4672  12.2%     -    0s
     0     0 24203.4672    0   50 27562.0000 24203.4672  12.2%     -    0s
     0     0 24203.4672    0   55 27562.0000 24203.4672  12.2%     -    0s
     0     0 24203.5277    0   71 27562.0000 24203.5277  12.2%     -    0s
     0     0 24203.5277    0   64 27562.0000 24203.5277  12.2%     -    0s
     0     0 24204.0494    0   67 27562.0000 24204.0494  12.2%     -    0s
     0     0 24204.0494    0   68 27562.0000 24204.0494  12.2%     -    0s
     0     0 24204.0494    0   68 27562.0000 24204.0494  12.2%     -    0s
     0     0 24204.0494    0   68 27562.0000 24204.0494  12.2%     -    0s
     0     0 24204.0494    0   68 27562.0000 24204.0494  12.2%     -    0s
     0     0 24204.0494    0   68 27562.0000 24204.0494  12.2%     -    0s
     0     0 27562.0000    0   57 27562.0000 27562.0000  0.00%     -    0s

Cutting planes:
  MIR: 23
  StrongCG: 1
  RLT: 9
  Relax-and-lift: 1

Explored 1 nodes (1282 simplex iterations) in 0.48 seconds (0.13 work units)
Thread count was 32 (of 128 available processors)

Solution count 6: 27562 27562 92988 ... 402330

Optimal solution found (tolerance 1.00e-10)
Best objective 2.756200000000e+04, best bound 2.756200000000e+04, gap 0.0000%
